(set-logic BV)
(set-info :status unknown)
(assert
 (forall ((ex_1 (_ BitVec 1)) (ex_2 (_ BitVec 1)) (ex_3 (_ BitVec 1)) (ex_4 (_ BitVec 1)) (ex_5 (_ BitVec 1)) (ex_6 (_ BitVec 1)) (ex_7 (_ BitVec 1)) (ex_8 (_ BitVec 1)) (ex_9 (_ BitVec 1)) (ex_10 (_ BitVec 1)) (ex_11 (_ BitVec 1)) (ex_12 (_ BitVec 1)) (ex_13 (_ BitVec 1)) (ex_14 (_ BitVec 1)) (ex_15 (_ BitVec 1)) (ex_16 (_ BitVec 1)) (ex_17 (_ BitVec 1)) (ex_18 (_ BitVec 1)) (ex_19 (_ BitVec 1)) (ex_20 (_ BitVec 1)) (ex_21 (_ BitVec 1)) (ex_22 (_ BitVec 1)) (ex_23 (_ BitVec 1)) (ex_24 (_ BitVec 1)) (ex_25 (_ BitVec 1)) )(exists ((exaux_1_25 (_ BitVec 5)) (cxaux_1_25 (_ BitVec 5)) (s_13 (_ BitVec 1)) (cx_1 (_ BitVec 1)) (cx_2 (_ BitVec 1)) (cx_6 (_ BitVec 1)) (cx_7 (_ BitVec 1)) (s_14 (_ BitVec 1)) (cx_8 (_ BitVec 1)) (cx_12 (_ BitVec 1)) (cx_13 (_ BitVec 1)) (s_15 (_ BitVec 1)) (cx_3 (_ BitVec 1)) (cx_4 (_ BitVec 1)) (cx_9 (_ BitVec 1)) (s_16 (_ BitVec 1)) (cx_10 (_ BitVec 1)) (cx_14 (_ BitVec 1)) (cx_15 (_ BitVec 1)) (s_17 (_ BitVec 1)) (s_18 (_ BitVec 1)) (cx_21 (_ BitVec 1)) (cx_22 (_ BitVec 1)) (s_19 (_ BitVec 1)) (cx_11 (_ BitVec 1)) (cx_16 (_ BitVec 1)) (cx_17 (_ BitVec 1)) (s_20 (_ BitVec 1)) (cx_18 (_ BitVec 1)) (cx_23 (_ BitVec 1)) (s_21 (_ BitVec 1)) (cx_19 (_ BitVec 1)) (s_22 (_ BitVec 1)) (cx_20 (_ BitVec 1)) (cx_24 (_ BitVec 1)) (cx_25 (_ BitVec 1)) (s_23 (_ BitVec 1)) (cx_5 (_ BitVec 1)) (s_24 (_ BitVec 1)) )(let (($x305 (bvule cxaux_1_25 (ite (bvule exaux_1_25 (_ bv2 5)) exaux_1_25 (_ bv2 5)))))
 (let (($x368 (= s_24 (bvadd cx_23 cx_24))))
 (let (($x365 (= s_23 (bvadd cx_4 cx_5))))
 (let (($x360 (and (= s_22 (bvadd cx_19 (bvadd cx_20 (bvadd cx_24 cx_25)))) (and $x365 (and $x368 $x305)))))
 (let (($x541 (and (= s_20 (bvadd cx_17 (bvadd cx_18 (bvadd cx_22 cx_23)))) (and (= s_21 (bvadd cx_13 (bvadd cx_14 (bvadd cx_18 cx_19)))) $x360))))
 (let (($x548 (= s_18 (bvadd cx_21 cx_22))))
 (let (($x549 (and $x548 (and (= s_19 (bvadd cx_11 (bvadd cx_12 (bvadd cx_16 cx_17)))) $x541))))
 (let (($x551 (= s_17 (bvadd cx_2 cx_3))))
 (let (($x556 (and (= s_16 (bvadd cx_9 (bvadd cx_10 (bvadd cx_14 cx_15)))) (and $x551 $x549))))
 (let (($x565 (and (= s_14 (bvadd cx_7 (bvadd cx_8 (bvadd cx_12 cx_13)))) (and (= s_15 (bvadd cx_3 (bvadd cx_4 (bvadd cx_8 cx_9)))) $x556))))
 (let (($x356 (= s_13 (bvadd cx_1 (bvadd cx_2 (bvadd cx_6 cx_7))))))
 (let (($x370 (= s_24 (bvadd ex_23 ex_24))))
 (let (($x621 (= s_23 (bvadd ex_4 ex_5))))
 (let (($x623 (= s_22 (bvadd ex_19 ex_20 ex_24 ex_25))))
 (let (($x625 (= s_21 (bvadd ex_13 ex_14 ex_18 ex_19))))
 (let (($x627 (= s_20 (bvadd ex_17 ex_18 ex_22 ex_23))))
 (let (($x629 (= s_19 (bvadd ex_11 ex_12 ex_16 ex_17))))
 (let (($x631 (= s_18 (bvadd ex_21 ex_22))))
 (let (($x633 (= s_17 (bvadd ex_2 ex_3))))
 (let (($x635 (= s_16 (bvadd ex_9 ex_10 ex_14 ex_15))))
 (let (($x637 (= s_15 (bvadd ex_3 ex_4 ex_8 ex_9))))
 (let (($x639 (= s_14 (bvadd ex_7 ex_8 ex_12 ex_13))))
 (let (($x641 (= s_13 (bvadd ex_1 ex_2 ex_6 ex_7))))
 (let (($x642 (and $x641 $x639 $x637 $x635 $x633 $x631 $x629 $x627 $x625 $x623 $x621 $x370 (= ex_1 (bvadd cx_1 cx_6 cx_11 cx_16 cx_21 ex_6 ex_11 ex_16 ex_21)))))
 (let (($x303 (bvule exaux_1_25 (_ bv2 5))))
 (let (($x374 (not $x303)))
 (let ((?x509 (bvadd (bvadd (bvadd (_ bv0 5) ((_ zero_extend 4) ex_1)) ((_ zero_extend 4) ex_2)) ((_ zero_extend 4) ex_3))))
 (let ((?x512 (bvadd (bvadd (bvadd ?x509 ((_ zero_extend 4) ex_4)) ((_ zero_extend 4) ex_5)) ((_ zero_extend 4) ex_6))))
 (let ((?x515 (bvadd (bvadd (bvadd ?x512 ((_ zero_extend 4) ex_7)) ((_ zero_extend 4) ex_8)) ((_ zero_extend 4) ex_9))))
 (let ((?x518 (bvadd (bvadd (bvadd ?x515 ((_ zero_extend 4) ex_10)) ((_ zero_extend 4) ex_11)) ((_ zero_extend 4) ex_12))))
 (let ((?x521 (bvadd (bvadd (bvadd ?x518 ((_ zero_extend 4) ex_13)) ((_ zero_extend 4) ex_14)) ((_ zero_extend 4) ex_15))))
 (let ((?x524 (bvadd (bvadd (bvadd ?x521 ((_ zero_extend 4) ex_16)) ((_ zero_extend 4) ex_17)) ((_ zero_extend 4) ex_18))))
 (let ((?x527 (bvadd (bvadd (bvadd ?x524 ((_ zero_extend 4) ex_19)) ((_ zero_extend 4) ex_20)) ((_ zero_extend 4) ex_21))))
 (let ((?x530 (bvadd (bvadd (bvadd ?x527 ((_ zero_extend 4) ex_22)) ((_ zero_extend 4) ex_23)) ((_ zero_extend 4) ex_24))))
 (let ((?x531 (bvadd ?x530 ((_ zero_extend 4) ex_25))))
 (let (($x532 (= ?x531 exaux_1_25)))
 (let ((?x378 ((_ zero_extend 4) cx_25)))
 (let ((?x379 ((_ zero_extend 4) cx_24)))
 (let ((?x380 ((_ zero_extend 4) cx_23)))
 (let ((?x387 ((_ zero_extend 4) cx_22)))
 (let ((?x383 ((_ zero_extend 4) cx_19)))
 (let ((?x381 ((_ zero_extend 4) cx_18)))
 (let ((?x384 ((_ zero_extend 4) cx_16)))
 (let ((?x388 ((_ zero_extend 4) cx_15)))
 (let ((?x389 ((_ zero_extend 4) cx_14)))
 (let ((?x390 ((_ zero_extend 4) cx_13)))
 (let ((?x391 ((_ zero_extend 4) cx_12)))
 (let ((?x385 ((_ zero_extend 4) cx_11)))
 (let ((?x393 ((_ zero_extend 4) cx_9)))
 (let ((?x396 ((_ zero_extend 4) cx_8)))
 (let ((?x394 ((_ zero_extend 4) cx_7)))
 (let ((?x395 ((_ zero_extend 4) cx_6)))
 (let ((?x397 ((_ zero_extend 4) cx_4)))
 (let ((?x398 ((_ zero_extend 4) cx_3)))
 (let ((?x593 (bvadd (bvadd (bvadd (bvadd (_ bv0 5) ((_ zero_extend 4) cx_1)) ((_ zero_extend 4) cx_2)) ?x398) ?x397)))
 (let ((?x598 (bvadd (bvadd (bvadd (bvadd (bvadd ?x593 ((_ zero_extend 4) cx_5)) ?x395) ?x394) ?x396) ?x393)))
 (let ((?x603 (bvadd (bvadd (bvadd (bvadd (bvadd ?x598 ((_ zero_extend 4) cx_10)) ?x385) ?x391) ?x390) ?x389)))
 (let ((?x608 (bvadd (bvadd (bvadd (bvadd (bvadd ?x603 ?x388) ?x384) ((_ zero_extend 4) cx_17)) ?x381) ?x383)))
 (let ((?x612 (bvadd (bvadd (bvadd (bvadd ?x608 ((_ zero_extend 4) cx_20)) ((_ zero_extend 4) cx_21)) ?x387) ?x380)))
 (let (($x646 (and (and $x532 (= (bvadd (bvadd ?x612 ?x379) ?x378) cxaux_1_25) $x532) (or $x374 (and $x642 (and $x356 $x565))))))
 (let (($x536 (not (bvule ?x531 (_ bv4 5)))))
 (or $x536 $x646)))))))))))))))))))))))))))))))))))))))))))))))))))))))))))))))
 )
 )
(check-sat)